100
128
6
54
26
2
32
35
40
33
8
55
39
42
14
4
26
24
19
16
20
18
26
53
40
38
35
14
55
53
20
52
50
11
58
35
9
22
12
15
21
2
32
54
39
51
61
58
56
13
17
1
15
15
13
24
50
13
9
13
12
15
63
15
20
11
34
28
33
14
26
57
64
34
30
31
10
24
22
17
38
26
64
33
30
42
19
24
41
35
39
30
60
25
48
24
28
63
52
24
64
18